
n_res = 4;
rcap = [25, 29, 470, 507];
rtype = [1, 1, 2, 2];
n_tasks = 100;
modes =  [{1, 2, 3}, {4, 5, 6}, {7, 8, 9}, {10, 11, 12}, {13, 14, 15}, {16, 17, 18}, {19, 20, 21}, {22, 23, 24}, {25, 26, 27}, {28, 29, 30}, {31, 32, 33}, {34, 35, 36}, {37, 38, 39}, {40, 41, 42}, {43, 44, 45}, {46, 47, 48}, {49, 50, 51}, {52, 53, 54}, {55, 56, 57}, {58, 59, 60}, {61, 62, 63}, {64, 65, 66}, {67, 68, 69}, {70, 71, 72}, {73, 74, 75}, {76, 77, 78}, {79, 80, 81}, {82, 83, 84}, {85, 86, 87}, {88, 89, 90}, {91, 92, 93}, {94, 95, 96}, {97, 98, 99}, {100, 101, 102}, {103, 104, 105}, {106, 107, 108}, {109, 110, 111}, {112, 113, 114}, {115, 116, 117}, {118, 119, 120}, {121, 122, 123}, {124, 125, 126}, {127, 128, 129}, {130, 131, 132}, {133, 134, 135}, {136, 137, 138}, {139, 140, 141}, {142, 143, 144}, {145, 146, 147}, {148, 149, 150}, {151, 152, 153}, {154, 155, 156}, {157, 158, 159}, {160, 161, 162}, {163, 164, 165}, {166, 167, 168}, {169, 170, 171}, {172, 173, 174}, {175, 176, 177}, {178, 179, 180}, {181, 182, 183}, {184, 185, 186}, {187, 188, 189}, {190, 191, 192}, {193, 194, 195}, {196, 197, 198}, {199, 200, 201}, {202, 203, 204}, {205, 206, 207}, {208, 209, 210}, {211, 212, 213}, {214, 215, 216}, {217, 218, 219}, {220, 221, 222}, {223, 224, 225}, {226, 227, 228}, {229, 230, 231}, {232, 233, 234}, {235, 236, 237}, {238, 239, 240}, {241, 242, 243}, {244, 245, 246}, {247, 248, 249}, {250, 251, 252}, {253, 254, 255}, {256, 257, 258}, {259, 260, 261}, {262, 263, 264}, {265, 266, 267}, {268, 269, 270}, {271, 272, 273}, {274, 275, 276}, {277, 278, 279}, {280, 281, 282}, {283, 284, 285}, {286, 287, 288}, {289, 290, 291}, {292, 293, 294}, {295, 296, 297}, {298, 299, 300}];
succ =  [{48, 43, 42, 41, 38, 34, 33, 31, 30, 28, 27, 25, 9}, {48, 43, 42, 41, 40, 38, 36, 33, 32, 27, 19, 9}, {43, 42, 41, 40, 39, 36, 33, 30, 28, 27, 23, 22, 21, 20}, {48, 42, 41, 40, 39, 38, 35, 30, 28, 23, 12}, {56, 54, 52, 50, 46, 43, 42, 39, 33, 32, 31, 30, 25, 22}, {64, 52, 48, 47, 46, 43, 42, 39, 37, 35, 32, 28, 27, 20}, {48, 44, 42, 41, 39, 35, 32, 31, 23, 21, 20}, {60, 52, 46, 43, 42, 39, 37, 34, 33, 32, 20, 19}, {54, 52, 51, 47, 46, 39, 37, 35, 20}, {64, 54, 47, 45, 42, 40, 32, 29, 23}, {64, 56, 50, 48, 45, 43, 42, 31, 28, 23}, {67, 64, 60, 59, 56, 54, 52, 50, 47, 46, 45, 37, 32}, {64, 59, 56, 55, 54, 52, 51, 50, 49, 48, 47, 46, 39, 37}, {64, 58, 54, 47, 41, 37, 32, 23}, {67, 60, 59, 56, 55, 50, 47, 46, 45, 44, 43, 42, 41, 33}, {62, 46, 45, 43, 38, 37, 36, 30}, {54, 51, 47, 45, 44, 42, 32, 23}, {68, 64, 61, 59, 56, 53, 51, 45, 35}, {67, 65, 64, 62, 56, 50, 45, 28}, {84, 81, 68, 67, 62, 59, 56, 55, 53, 50, 49, 45}, {72, 66, 64, 62, 60, 59, 58, 56, 54, 49, 47, 46}, {74, 65, 62, 59, 47, 35}, {72, 71, 68, 67, 66, 65, 61, 60, 57, 53, 52, 46}, {65, 60, 57, 53, 50, 44, 41}, {84, 74, 73, 72, 68, 62, 61, 58, 53, 51, 49}, {84, 83, 81, 74, 72, 68, 65, 62, 58, 49, 47}, {84, 73, 68, 66, 62, 51, 49, 45}, {84, 73, 72, 71, 66, 61, 54, 51, 49}, {96, 73, 72, 71, 68, 62, 60, 41}, {74, 66, 51, 49, 47, 44}, {84, 83, 81, 74, 72, 71, 65, 63, 61, 58, 57, 55}, {84, 83, 80, 74, 72, 71, 68, 65, 62, 55, 49}, {93, 74, 73, 72, 66, 64, 63, 61, 58, 51}, {96, 84, 81, 80, 79, 74, 73, 72, 71, 65, 62, 57, 53}, {100, 83, 80, 73, 72, 67, 66, 60, 49}, {99, 81, 73, 72, 63, 61, 60, 58, 54}, {97, 84, 80, 74, 66, 65, 57, 44}, {100, 74, 73, 72, 69, 66, 64, 58, 53}, {84, 81, 73, 71, 63, 45}, {98, 97, 96, 93, 83, 81, 80, 79, 77, 74, 72, 71, 70, 69, 65, 59}, {97, 80, 79, 78, 77, 74, 66, 63, 51}, {97, 96, 94, 84, 83, 81, 80, 74, 73, 71, 63, 57}, {97, 96, 94, 83, 82, 74, 68, 66, 63, 57}, {100, 99, 96, 94, 93, 92, 83, 82, 78, 77, 73, 71, 68, 63}, {99, 97, 83, 78, 74, 72, 70, 58, 57}, {100, 98, 97, 96, 95, 94, 93, 92, 91, 90, 83, 80, 79, 78, 77, 76, 75, 74, 73, 70}, {96, 80, 79, 77, 75, 73, 71, 53}, {98, 95, 94, 93, 91, 84, 78, 77, 74, 73, 69, 66}, {99, 97, 96, 94, 79, 78, 63, 57}, {99, 95, 93, 80, 79, 77, 75, 74, 73, 61}, {100, 99, 98, 95, 94, 91, 90, 89, 83, 82, 81, 75, 70, 69}, {97, 96, 95, 94, 93, 90, 88, 84, 79, 78, 75, 73, 70, 69}, {99, 97, 94, 93, 92, 63}, {100, 97, 95, 94, 93, 92, 91, 86, 80, 77, 75, 74}, {100, 96, 94, 93, 88, 79, 77, 75, 73, 69}, {97, 96, 93, 92, 76, 75, 74, 71, 70}, {98, 93, 92, 91, 90, 89, 88, 86, 77, 76, 75}, {96, 94, 91, 90, 88, 86, 80, 79, 77, 75}, {100, 92, 91, 90, 89, 87, 82, 78, 75, 73}, {94, 92, 91, 90, 84, 79, 75, 69}, {97, 96, 94, 91, 90, 89, 87, 85, 82, 78}, {97, 95, 93, 92, 91, 90, 87, 85, 82, 78}, {98, 95, 91, 90, 89, 88, 76, 70}, {96, 95, 90, 89, 88, 84, 71}, {100, 99, 95, 90, 89, 87, 86, 76}, {99, 90, 89, 87, 86, 81, 75}, {93, 91, 88, 87, 86, 85}, {90, 89, 87, 75}, {87, 86, 76}, {87, 86, 85}, {91, 86, 85}, {88, 87, 85}, {86, 85}, {89, 88}, {85}, {85}, {87}, {86}, {89}, {85}, {92}, {88}, {88}, {86}, {}, {}, {}, {}, {}, {}, {}, {}, {}, {}, {}, {}, {}, {}, {}, {}];
n_opt = 300;
dur = [3, 8, 10, 8, 9, 10, 4, 8, 9, 5, 7, 9, 1, 7, 8, 4, 8, 9, 2, 7, 9, 3, 3, 8, 1, 6, 8, 3, 7, 8, 2, 4, 10, 1, 9, 10, 1, 5, 5, 5, 6, 7, 1, 2, 3, 5, 6, 6, 1, 1, 6, 1, 2, 8, 1, 2, 5, 1, 5, 9, 1, 2, 9, 2, 3, 5, 3, 7, 8, 6, 8, 8, 4, 9, 9, 1, 9, 10, 3, 4, 8, 5, 6, 7, 9, 9, 10, 4, 5, 10, 3, 4, 5, 2, 5, 7, 3, 4, 10, 3, 6, 7, 3, 8, 9, 2, 3, 10, 2, 7, 8, 1, 5, 5, 1, 4, 10, 1, 4, 8, 1, 4, 6, 2, 3, 4, 5, 8, 10, 1, 2, 9, 8, 9, 10, 7, 7, 8, 5, 6, 9, 1, 2, 10, 4, 5, 6, 4, 7, 10, 3, 3, 7, 4, 10, 10, 8, 9, 10, 2, 5, 8, 6, 8, 10, 8, 9, 10, 4, 5, 7, 2, 9, 10, 1, 2, 8, 1, 1, 5, 1, 5, 9, 2, 3, 7, 1, 7, 8, 4, 8, 9, 1, 2, 7, 1, 2, 5, 6, 8, 9, 6, 8, 9, 2, 3, 4, 4, 6, 7, 2, 7, 8, 9, 10, 10, 3, 5, 10, 1, 4, 7, 1, 6, 10, 7, 9, 10, 3, 6, 7, 2, 3, 4, 4, 9, 10, 2, 4, 9, 2, 6, 8, 5, 5, 8, 2, 4, 9, 5, 6, 7, 3, 4, 4, 3, 3, 9, 5, 8, 10, 4, 7, 10, 1, 3, 5, 7, 8, 9, 3, 6, 9, 1, 2, 5, 3, 5, 7, 3, 4, 7, 3, 6, 9, 7, 8, 10, 4, 6, 7, 2, 3, 6, 1, 2, 3, 1, 6, 6];
rreq = [|4, 3, 0, 0, 4, 4, 0, 0, 0, 3, 0, 0, 4, 3, 0, 0, 1, 0, 3, 1, 1, 3, 0, 0, 0, 3, 0, 0, 0, 0, 4, 0, 2, 0, 0, 0, 4, 0, 2, 0, 0, 2, 2, 0, 0, 0, 1, 0, 3, 0, 2, 0, 2, 0, 0, 0, 3, 4, 0, 0, 0, 0, 0, 0, 0, 1, 2, 0, 2, 0, 0, 5, 2, 1, 0, 0, 0, 0, 0, 0, 1, 0, 0, 1, 0, 4, 4, 1, 1, 0, 2, 0, 2, 3, 2, 0, 0, 0, 0, 0, 4, 4, 0, 3, 0, 1, 0, 1, 0, 0, 0, 0, 0, 2, 4, 3, 0, 5, 0, 3, 4, 0, 0, 0, 1, 0, 4, 0, 4, 5, 4, 4, 2, 1, 1, 0, 4, 0, 0, 5, 0, 0, 2, 0, 5, 3, 0, 5, 4, 2, 0, 3, 3, 0, 1, 0, 0, 0, 0, 1, 0, 0, 4, 2, 2, 0, 0, 0, 0, 2, 2, 0, 0, 3, 0, 4, 3, 5, 0, 0, 2, 0, 0, 0, 3, 3, 4, 3, 0, 0, 2, 2, 0, 4, 3, 4, 4, 0, 0, 3, 2, 0, 0, 1, 5, 0, 2, 0, 0, 0, 1, 0, 0, 4, 4, 0, 4, 0, 1, 1, 0, 0, 4, 0, 2, 0, 0, 2, 0, 4, 0, 3, 0, 0, 3, 0, 0, 4, 3, 0, 3, 0, 0, 4, 0, 0, 5, 5, 5, 0, 0, 0, 0, 0, 3, 3, 0, 1, 5, 4, 4, 4, 3, 0, 3, 0, 3, 3, 2, 1, 0, 1, 0, 0, 2, 2, 0, 2, 2, 0, 4, 3, 4, 4, 4, 2, 0, 0, 5, 2, 1, 0, 0, 0, 0, 0, 0, 0, 0, 1
 |0, 0, 4, 3, 0, 0, 3, 2, 1, 0, 2, 1, 0, 0, 2, 3, 0, 2, 0, 0, 0, 0, 2, 1, 3, 0, 3, 5, 4, 4, 0, 4, 0, 4, 3, 2, 0, 4, 0, 2, 1, 0, 0, 4, 3, 3, 0, 3, 0, 3, 0, 3, 0, 2, 2, 1, 0, 0, 1, 1, 4, 4, 4, 3, 2, 0, 0, 2, 0, 3, 3, 0, 0, 0, 2, 3, 2, 2, 1, 1, 0, 4, 2, 0, 3, 0, 0, 0, 0, 3, 0, 3, 0, 0, 0, 3, 4, 2, 2, 1, 0, 0, 5, 0, 1, 0, 1, 0, 5, 3, 1, 3, 3, 0, 0, 0, 1, 0, 3, 0, 0, 2, 1, 5, 0, 5, 0, 1, 0, 0, 0, 0, 0, 0, 0, 4, 0, 3, 5, 0, 5, 4, 0, 4, 0, 0, 2, 0, 0, 0, 5, 0, 0, 2, 0, 2, 3, 3, 2, 0, 3, 3, 0, 0, 0, 1, 1, 1, 5, 0, 0, 2, 2, 0, 3, 0, 0, 0, 2, 2, 0, 3, 3, 3, 0, 0, 0, 0, 1, 1, 0, 0, 5, 0, 0, 0, 0, 1, 3, 0, 0, 4, 4, 0, 0, 3, 0, 4, 4, 4, 0, 5, 5, 0, 0, 2, 0, 1, 0, 0, 2, 1, 0, 4, 0, 5, 3, 0, 3, 0, 2, 0, 4, 2, 0, 4, 4, 0, 0, 2, 0, 4, 3, 0, 1, 1, 0, 0, 0, 2, 2, 2, 4, 4, 0, 0, 4, 0, 0, 0, 0, 0, 0, 3, 0, 3, 0, 0, 0, 0, 2, 0, 1, 3, 0, 0, 4, 0, 0, 4, 0, 0, 0, 0, 0, 0, 2, 1, 0, 0, 0, 3, 3, 2, 4, 4, 4, 2, 2, 0
 |7, 7, 6, 8, 7, 7, 6, 5, 5, 7, 4, 2, 7, 6, 2, 6, 6, 6, 8, 4, 2, 3, 2, 2, 7, 5, 2, 8, 6, 5, 7, 6, 5, 5, 4, 3, 9, 7, 6, 10, 9, 8, 8, 5, 4, 7, 5, 3, 10, 10, 10, 8, 7, 6, 6, 5, 4, 9, 4, 2, 8, 6, 5, 7, 7, 7, 9, 9, 9, 5, 3, 3, 10, 9, 8, 10, 6, 5, 9, 6, 3, 4, 4, 3, 4, 3, 3, 5, 5, 4, 8, 4, 3, 5, 5, 5, 5, 3, 2, 5, 5, 1, 8, 7, 7, 2, 2, 2, 9, 4, 4, 6, 4, 3, 4, 3, 3, 7, 5, 3, 6, 4, 3, 2, 2, 1, 3, 1, 1, 8, 6, 6, 9, 8, 7, 8, 8, 6, 8, 7, 6, 7, 7, 6, 2, 2, 2, 9, 9, 9, 8, 5, 5, 7, 6, 6, 2, 1, 1, 8, 4, 4, 9, 9, 7, 2, 2, 2, 2, 2, 2, 8, 5, 3, 4, 3, 1, 6, 2, 1, 6, 4, 2, 6, 5, 3, 10, 9, 9, 5, 2, 1, 6, 2, 2, 4, 3, 2, 8, 6, 2, 5, 5, 5, 8, 6, 4, 5, 4, 4, 10, 5, 4, 3, 3, 2, 10, 10, 10, 7, 6, 3, 4, 3, 1, 9, 4, 1, 5, 5, 2, 3, 2, 2, 8, 6, 3, 2, 2, 2, 3, 3, 3, 6, 4, 4, 6, 5, 5, 7, 3, 3, 8, 6, 2, 9, 8, 8, 6, 6, 6, 3, 3, 3, 8, 7, 5, 5, 5, 5, 5, 5, 5, 9, 8, 8, 9, 8, 8, 6, 4, 2, 2, 1, 1, 4, 2, 2, 8, 8, 7, 9, 9, 9, 7, 7, 6, 7, 6, 4
 |10, 6, 6, 3, 2, 1, 8, 6, 5, 2, 1, 1, 10, 9, 8, 6, 4, 4, 5, 5, 5, 9, 4, 2, 6, 4, 3, 9, 6, 3, 9, 7, 7, 5, 4, 4, 4, 4, 4, 10, 7, 5, 6, 5, 3, 6, 5, 3, 6, 3, 1, 7, 7, 7, 6, 6, 5, 8, 6, 3, 4, 4, 4, 7, 7, 7, 6, 4, 4, 9, 6, 3, 6, 4, 4, 3, 2, 2, 5, 5, 4, 8, 7, 6, 10, 9, 8, 5, 4, 3, 1, 1, 1, 8, 6, 3, 3, 2, 2, 1, 1, 1, 8, 7, 5, 4, 3, 3, 6, 5, 4, 4, 4, 4, 9, 4, 4, 9, 9, 9, 3, 2, 2, 5, 5, 5, 5, 5, 5, 3, 2, 1, 7, 6, 5, 7, 5, 5, 9, 9, 9, 8, 7, 6, 6, 5, 4, 8, 7, 2, 8, 8, 6, 7, 5, 2, 10, 10, 10, 8, 4, 3, 8, 4, 2, 9, 8, 7, 7, 6, 3, 4, 4, 4, 9, 6, 6, 8, 7, 7, 7, 6, 4, 9, 8, 7, 9, 6, 5, 8, 7, 4, 5, 5, 5, 8, 8, 8, 5, 4, 3, 4, 3, 2, 6, 4, 4, 7, 6, 5, 8, 6, 5, 6, 5, 6, 10, 9, 8, 10, 8, 7, 9, 5, 1, 9, 9, 9, 7, 5, 4, 9, 9, 9, 5, 3, 3, 4, 4, 4, 5, 4, 4, 8, 7, 6, 9, 6, 5, 10, 8, 6, 5, 5, 5, 5, 4, 3, 6, 3, 1, 8, 8, 8, 7, 7, 7, 7, 5, 4, 8, 6, 6, 4, 4, 3, 3, 3, 2, 9, 8, 7, 5, 5, 4, 5, 5, 5, 6, 6, 4, 8, 7, 6, 9, 6, 5, 2, 2, 2|];